100
102
45 4
22 1
33 2
35 2
28 2
37 2
38 2
27 1
35 3
38 3
28 1
34 2
37 2
22 2
41 3
40 3
26 2
34 2
44 3
21 1
35 2
44 4
21 1
35 3
34 1
27 1
39 2
36 3
23 1
41 2
37 2
22 1
41 3
33 2
27 1
40 2
48 3
22 1
30 2
38 2
24 1
38 3
42 3
24 1
34 2
34 2
28 1
38 3
43 2
22 1
35 3
36 2
22 1
42 2
40 2
22 1
38 3
48 3
18 1
34 2
42 3
23 1
35 2
48 2
20 1
32 2
42 3
21 1
37 2
34 2
26 1
40 2
45 2
19 1
36 2
33 2
32 3
35 2
34 1
26 1
40 2
45 4
18 0
37 3
37 2
21 1
42 3
33 2
24 1
43 2
44 4
23 2
33 1
34 2
28 2
38 2
48 3
22 1
30 1
37 2
23 1
40 2
